0 444 48
1 6 139
2 35 27
3 906 256
4 152 2
5 40 125
6 672 210
7 212 787
8 448 693
9 720 584
10 273 71
11 11 422
12 695 4
13 563 172
14 100 270
15 63 115
16 38 747
17 183 705
18 137 205
19 515 143
20 235 817
21 503 633
22 115 77
23 36 469
24 1 27
25 193 448
26 95 0
27 265 122
28 143 67
29 2 60
30 50 338
31 34 426
32 465 176
33 504 450
34 29 245
35 263 519
36 67 310
37 1 155
38 189 75
39 183 62
40 261 229
41 158 114
42 100 6
43 303 142
44 12 60
45 195 588
46 116 136
47 230 103
48 190 94
49 58 297
50 113 714
51 523 187
52 669 211
53 136 388
54 324 48
55 312 40
56 777 183
57 266 540
58 264 53
59 455 50
60 793 342
61 33 234
62 46 426
63 161 418
64 487 145
65 472 15
66 662 90
67 41 433
68 48 82
69 723 15
70 715 415
71 54 129
72 37 580
73 32 138
74 295 33
75 494 253
76 15 90
77 67 87